Crypto/instances/samples/hf_n23/hf_n23_cnf09.sol
c DPLL-like Solver for max-min SAT
f file hf_n23_cnf09.cnf
p cnf 23 95
s max  95 14 15 -16 13 -2 -1 -3 -4 7 6 5 8 19 -11 9 -12 10 -22 -18 -21 -23 -20 -17
s min  79 -14 -15 -16 -13 2 -1 -3 -4 -7 6 -5 -8 -19 -11 9 12 10 22 -18 21 -23 20 -17